log/Reading instance from file data/g06.dat
Number of nodes: 201
Number of edges: 999
initialize CPLEX ... done.
Calling CPLEX solve ...
Version identifier: 12.10.0.0 | 2019-11-26 | 843d4de
CPXPARAM_Threads                                 1
CPXPARAM_TimeLimit                               3600
CPXPARAM_WorkMem                                 8192
Tried aggregator 1 time.
MIP Presolve eliminated 4197 rows and 3996 columns.
MIP Presolve modified 42598 coefficients.
Reduced MIP has 398806 rows, 399800 columns, and 1876004 nonzeros.
Reduced MIP has 399800 binaries, 0 generals, 0 SOSs, and 0 indicators.
Presolve time = 10.25 sec. (3324.08 ticks)
Elapsed time = 30.59 sec. (10003.38 ticks) for 1% of probing
Probing time = 52.41 sec. (17707.59 ticks)
Tried aggregator 1 time.
Detecting symmetries...
MIP Presolve eliminated 1998 rows and 1798 columns.
MIP Presolve modified 200 coefficients.
Reduced MIP has 396808 rows, 398002 columns, and 1870210 nonzeros.
Reduced MIP has 398002 binaries, 0 generals, 0 SOSs, and 0 indicators.
Presolve time = 11.19 sec. (3679.59 ticks)
Probing time = 0.54 sec. (108.39 ticks)
Clique table members: 1312359.
MIP emphasis: balance optimality and feasibility.
MIP search method: dynamic search.
Parallel mode: none, using 1 thread.
Root relaxation solution time = 130.23 sec. (62582.68 ticks)

        Nodes                                         Cuts/
   Node  Left     Objective  IInf  Best Integer    Best Bound    ItCnt     Gap

      0     0     6698.0000    59                   6698.0000    97486         
*     0+    0                         6723.0000     6698.0000             0.37%
      0     0     6704.5000    59     6723.0000       Cuts: 2    98479    0.28%
      0     0     6704.5000    59     6723.0000    MIRcuts: 1    99862    0.28%
*     0+    0                         6705.0000     6704.5000             0.01%
      0     0  -1.00000e+75     0     6705.0000     6704.5000    99862    0.01%
      0     0        cutoff           6705.0000     6704.5000    99862    0.01%
Elapsed time = 273.95 sec. (129966.79 ticks, tree = 0.01 MB, solutions = 2)

Mixed integer rounding cuts applied:  1
Gomory fractional cuts applied:  1

Root node processing (before b&c):
  Real time             =  273.97 sec. (129991.32 ticks)
Sequential b&c:
  Real time             =    0.00 sec. (0.00 ticks)
                          ------------
Total (root+branch&cut) =  273.97 sec. (129991.32 ticks)
SOLUTION:

x(0,145)[0..1]  = 1
x(3,104)[0..1]  = 1
x(5,138)[0..1]  = 1
x(7,23)[0..1]  = 1
x(7,156)[0..1]  = 1
x(11,88)[0..1]  = 1
x(11,93)[0..1]  = 1
x(17,36)[0..1]  = 1
x(19,152)[0..1]  = 1
x(23,102)[0..1]  = 1
x(31,60)[0..1]  = 1
x(32,134)[0..1]  = 1
x(36,96)[0..1]  = 1
x(37,62)[0..1]  = 1
x(44,114)[0..1]  = 1
x(46,112)[0..1]  = 1
x(53,55)[0..1]  = 1
x(55,106)[0..1]  = 1
x(63,123)[0..1]  = 1
x(63,125)[0..1]  = 1
x(74,98)[0..1]  = 1
x(77,140)[0..1]  = 1
x(80,136)[0..1]  = 1
x(84,146)[0..1]  = 1
x(91,175)[0..1]  = 1
x(98,149)[0..1]  = 1
x(98,183)[0..1]  = 1
x(100,121)[0..1]  = 1
x(107,132)[0..1]  = 1
x(110,168)[0..1]  = 1
x(110,170)[0..1]  = 1
x(115,169)[0..1]  = 1
x(134,155)[0..1]  = 1
x(134,172)[0..1]  = 1
x(135,148)[0..1]  = 1
x(148,199)[0..1]  = 1
x(151,182)[0..1]  = 1
x(152,159)[0..1]  = 1
x(152,181)[0..1]  = 1
x(153,179)[0..1]  = 1
x(171,177)[0..1]  = 1
x(184,189)[0..1]  = 1
x(187,191)[0..1]  = 1
x(189,192)[0..1]  = 1
x(158,3)[0..1]  = 1
x(159,5)[0..1]  = 1
x(181,7)[0..1]  = 1
x(17,9)[0..1]  = 1
x(46,11)[0..1]  = 1
x(55,15)[0..1]  = 1
x(140,17)[0..1]  = 1
x(32,19)[0..1]  = 1
x(53,20)[0..1]  = 1
x(138,21)[0..1]  = 1
x(136,24)[0..1]  = 1
x(84,25)[0..1]  = 1
x(115,27)[0..1]  = 1
x(36,31)[0..1]  = 1
x(52,32)[0..1]  = 1
x(84,37)[0..1]  = 1
x(100,42)[0..1]  = 1
x(156,44)[0..1]  = 1
x(121,46)[0..1]  = 1
x(175,48)[0..1]  = 1
x(135,50)[0..1]  = 1
x(104,52)[0..1]  = 1
x(184,53)[0..1]  = 1
x(182,63)[0..1]  = 1
x(84,74)[0..1]  = 1
x(181,77)[0..1]  = 1
x(106,78)[0..1]  = 1
x(107,80)[0..1]  = 1
x(88,82)[0..1]  = 1
x(87,84)[0..1]  = 1
x(118,87)[0..1]  = 1
x(148,91)[0..1]  = 1
x(126,100)[0..1]  = 1
x(191,107)[0..1]  = 1
x(151,109)[0..1]  = 1
x(189,110)[0..1]  = 1
x(146,111)[0..1]  = 1
x(159,115)[0..1]  = 1
x(152,117)[0..1]  = 1
x(141,118)[0..1]  = 1
x(168,126)[0..1]  = 1
x(192,128)[0..1]  = 1
x(145,135)[0..1]  = 1
x(145,141)[0..1]  = 1
x(175,143)[0..1]  = 1
x(192,151)[0..1]  = 1
x(169,153)[0..1]  = 1
x(194,157)[0..1]  = 1
x(183,158)[0..1]  = 1
x(193,171)[0..1]  = 1
x(187,184)[0..1]  = 1
x(194,187)[0..1]  = 1
x(195,188)[0..1]  = 1
x(199,193)[0..1]  = 1
x(199,194)[0..1]  = 1
x(199,195)[0..1]  = 1
z(3)[0..1]  = 1
z(5)[0..1]  = 1
z(7)[0..1]  = 1
z(9)[0..1]  = 1
z(11)[0..1]  = 1
z(15)[0..1]  = 1
z(17)[0..1]  = 1
z(19)[0..1]  = 1
z(20)[0..1]  = 1
z(21)[0..1]  = 1
z(23)[0..1]  = 1
z(24)[0..1]  = 1
z(25)[0..1]  = 1
z(27)[0..1]  = 1
z(31)[0..1]  = 1
z(32)[0..1]  = 1
z(36)[0..1]  = 1
z(37)[0..1]  = 1
z(42)[0..1]  = 1
z(44)[0..1]  = 1
z(46)[0..1]  = 1
z(48)[0..1]  = 1
z(50)[0..1]  = 1
z(52)[0..1]  = 1
z(53)[0..1]  = 1
z(55)[0..1]  = 1
z(60)[0..1]  = 1
z(62)[0..1]  = 1
z(63)[0..1]  = 1
z(74)[0..1]  = 1
z(77)[0..1]  = 1
z(78)[0..1]  = 1
z(80)[0..1]  = 1
z(82)[0..1]  = 1
z(84)[0..1]  = 1
z(87)[0..1]  = 1
z(88)[0..1]  = 1
z(91)[0..1]  = 1
z(93)[0..1]  = 1
z(96)[0..1]  = 1
z(98)[0..1]  = 1
z(100)[0..1]  = 1
z(102)[0..1]  = 1
z(104)[0..1]  = 1
z(106)[0..1]  = 1
z(107)[0..1]  = 1
z(109)[0..1]  = 1
z(110)[0..1]  = 1
z(111)[0..1]  = 1
z(112)[0..1]  = 1
z(114)[0..1]  = 1
z(115)[0..1]  = 1
z(117)[0..1]  = 1
z(118)[0..1]  = 1
z(121)[0..1]  = 1
z(123)[0..1]  = 1
z(125)[0..1]  = 1
z(126)[0..1]  = 1
z(128)[0..1]  = 1
z(132)[0..1]  = 1
z(134)[0..1]  = 1
z(135)[0..1]  = 1
z(136)[0..1]  = 1
z(138)[0..1]  = 1
z(140)[0..1]  = 1
z(141)[0..1]  = 1
z(143)[0..1]  = 1
z(145)[0..1]  = 1
z(146)[0..1]  = 1
z(148)[0..1]  = 1
z(149)[0..1]  = 1
z(151)[0..1]  = 1
z(152)[0..1]  = 1
z(153)[0..1]  = 1
z(155)[0..1]  = 1
z(156)[0..1]  = 1
z(157)[0..1]  = 1
z(158)[0..1]  = 1
z(159)[0..1]  = 1
z(168)[0..1]  = 1
z(169)[0..1]  = 1
z(170)[0..1]  = 1
z(171)[0..1]  = 1
z(172)[0..1]  = 1
z(175)[0..1]  = 1
z(177)[0..1]  = 1
z(179)[0..1]  = 1
z(181)[0..1]  = 1
z(182)[0..1]  = 1
z(183)[0..1]  = 1
z(184)[0..1]  = 1
z(187)[0..1]  = 1
z(188)[0..1]  = 1
z(189)[0..1]  = 1
z(191)[0..1]  = 1
z(192)[0..1]  = 1
z(193)[0..1]  = 1
z(194)[0..1]  = 1
z(195)[0..1]  = 1
z(199)[0..1]  = 1


CPLEX finished.

CPLEX status: Optimal
Branch-and-Bound nodes: 0
Objective value: 6705
CPU time: 274.72

